c This is a random SAT instance with 10 variables and 20 clauses
p cnf 10 20
-7 5 0
10 -5 2 0
4 -1 9 0
-9 9 0
9 -2 3 -9 -5 -7 0
-8 5 0
-1 -4 2 0
1 4 -7 -2 -3 -8 5 0
-8 2 -2 8 0
-10 5 2 3 7 0
-2 -3 -1 2 5 -8 3 1 -9 0
-4 -1 -6 10 8 -10 0
-3 4 10 -5 -2 0
1 -7 -4 2 -6 4 -9 0
-3 -7 4 -1 -2 0
-9 -8 -2 5 6 -1 0
4 3 9 8 -5 0
5 -10 0
-10 -5 -6 4 1 8 0
-2 7 6 3 -7 -1 -9 0